17 37 17 37 20
17 27 17 27 0
17 34 17 34 17
17 30 17 30 9
17 28 17 28 7
17 39 17 39 22
17 36 17 36 18
17 33 17 33 12
17 28 17 28 6
17 31 17 31 11
17 34 17 34 15
17 33 17 33 13
17 28 17 28 5
17 27 17 27 3
17 37 17 37 21
17 37 17 37 19
17 28 17 28 8
17 27 17 27 1
17 27 17 27 2
17 31 17 31 10
17 33 17 33 14
17 28 17 28 4
17 34 17 34 16
